NAME 
ROWS
 N  OBJ
 L  R0      
 L  R1      
 L  R2      
 L  R3      
 L  R4      
 L  R5      
 L  R6      
 L  R7      
 L  R8      
 L  R9      
 L  R10     
 L  R11     
 L  R12     
 L  R13     
 L  R14     
 L  R15     
 L  R16     
 L  R17     
 L  R18     
 L  R19     
 L  R20     
 L  R21     
 L  R22     
 L  R23     
 L  R24     
 L  R25     
 L  R26     
 L  R27     
 L  R28     
 L  R29     
 L  R30     
 L  R31     
 L  R32     
 L  R33     
 L  R34     
 L  R35     
 L  R36     
 L  R37     
 L  R38     
 L  R39     
 L  R40     
 L  R41     
 L  R42     
 L  R43     
 L  R44     
 L  R45     
 L  R46     
 L  R47     
 L  R48     
 L  R49     
 L  R50     
 L  R51     
 L  R52     
 L  R53     
 L  R54     
 L  R55     
 L  R56     
 L  R57     
 L  R58     
 L  R59     
 L  R60     
 L  R61     
 L  R62     
 L  R63     
 L  R64     
 L  R65     
 L  R66     
 L  R67     
 L  R68     
 L  R69     
 L  R70     
 L  R71     
 L  R72     
 L  R73     
 L  R74     
 L  R75     
 L  R76     
 L  R77     
 L  R78     
 L  R79     
 L  R80     
 L  R81     
 L  R82     
 L  R83     
 L  R84     
 L  R85     
 L  R86     
 L  R87     
 L  R88     
 L  R89     
 L  R90     
 L  R91     
 L  R92     
 L  R93     
 L  R94     
 L  R95     
 L  R96     
 L  R97     
 L  R98     
 L  R99     
 L  R100    
 L  R101    
 L  R102    
 L  R103    
 L  R104    
 L  R105    
 L  R106    
 L  R107    
 L  R108    
 L  R109    
 L  R110    
 L  R111    
 L  R112    
 L  R113    
 L  R114    
 L  R115    
 L  R116    
 L  R117    
 L  R118    
 L  R119    
 L  R120    
 L  R121    
 L  R122    
 L  R123    
 L  R124    
 L  R125    
 L  R126    
 L  R127    
 L  R128    
 L  R129    
 L  R130    
 L  R131    
 L  R132    
 L  R133    
 L  R134    
 L  R135    
 L  R136    
 L  R137    
 L  R138    
 L  R139    
 L  R140    
 L  R141    
 L  R142    
 L  R143    
 L  R144    
 L  R145    
 L  R146    
 L  R147    
 L  R148    
 L  R149    
 L  R150    
 L  R151    
 L  R152    
 L  R153    
 L  R154    
 L  R155    
 L  R156    
 L  R157    
 L  R158    
 L  R159    
 L  R160    
 L  R161    
 L  R162    
 L  R163    
 L  R164    
 L  R165    
 L  R166    
 L  R167    
 L  R168    
 L  R169    
 L  R170    
 L  R171    
 L  R172    
 L  R173    
 L  R174    
 L  R175    
 L  R176    
 L  R177    
 L  R178    
 L  R179    
 L  R180    
 L  R181    
 L  R182    
 L  R183    
 L  R184    
 L  R185    
 L  R186    
 L  R187    
 L  R188    
 L  R189    
 L  R190    
 L  R191    
 L  R192    
 L  R193    
 L  R194    
 L  R195    
 L  R196    
 L  R197    
 L  R198    
 L  R199    
 L  R200    
 L  R201    
 L  R202    
 L  R203    
 L  R204    
 L  R205    
 L  R206    
 L  R207    
 L  R208    
 L  R209    
 L  R210    
 L  R211    
 L  R212    
 L  R213    
 L  R214    
 L  R215    
 L  R216    
 L  R217    
 L  R218    
 L  R219    
 L  R220    
 L  R221    
 L  R222    
 L  R223    
 L  R224    
 L  R225    
 L  R226    
 L  R227    
 L  R228    
 L  R229    
 L  R230    
 L  R231    
 L  R232    
 L  R233    
 L  R234    
 L  R235    
 L  R236    
 L  R237    
 L  R238    
 L  R239    
 L  R240    
 L  R241    
 L  R242    
 L  R243    
 L  R244    
 L  R245    
 L  R246    
 L  R247    
 L  R248    
 L  R249    
 L  R250    
 L  R251    
 L  R252    
 L  R253    
 L  R254    
 L  R255    
 L  R256    
 L  R257    
 L  R258    
 L  R259    
 L  R260    
 L  R261    
 L  R262    
 L  R263    
 L  R264    
 L  R265    
 L  R266    
 L  R267    
 L  R268    
 L  R269    
 L  R270    
 L  R271    
 L  R272    
 L  R273    
 L  R274    
 L  R275    
 L  R276    
 L  R277    
 L  R278    
 L  R279    
 L  R280    
 L  R281    
 L  R282    
 L  R283    
 L  R284    
 L  R285    
 L  R286    
 L  R287    
 L  R288    
 L  R289    
 L  R290    
 L  R291    
 L  R292    
 L  R293    
 L  R294    
 L  R295    
 L  R296    
 L  R297    
 L  R298    
 L  R299    
 L  R300    
 L  R301    
 L  R302    
 L  R303    
 L  R304    
 L  R305    
COLUMNS
    MARKER    'MARKER'                 'INTORG'
    x[0]      OBJ       -12
    x[0]      R1        -5
    x[1]      OBJ       -46
    x[1]      R0        -4
    x[1]      R1        -8
    x[2]      OBJ       20
    x[2]      R0        -1
    x[2]      R1        9
    x[3]      OBJ       26
    x[3]      R0        -6
    x[3]      R1        -6
    x[4]      OBJ       23
    x[4]      R0        -2
    x[4]      R1        7
    x[5]      OBJ       -45
    x[5]      R0        8
    x[5]      R1        3
    x[6]      OBJ       29
    x[7]      OBJ       34
    x[7]      R0        -7
    x[7]      R1        9
    x[8]      OBJ       9
    x[8]      R0        4
    x[8]      R1        7
    x[9]      OBJ       -19
    x[9]      R0        10
    x[9]      R1        -10
    x[10]     OBJ       40
    x[10]     R0        1
    x[10]     R1        -2
    x[11]     OBJ       -43
    x[11]     R0        -1
    x[11]     R1        -2
    x[12]     OBJ       16
    x[12]     R1        10
    x[13]     OBJ       -18
    x[13]     R0        -8
    x[13]     R1        4
    x[14]     OBJ       -4
    x[14]     R0        10
    x[14]     R1        -6
    x[15]     OBJ       25
    x[15]     R0        1
    x[15]     R1        8
    x[16]     OBJ       32
    x[16]     R0        6
    x[16]     R1        -3
    x[17]     OBJ       -6
    x[17]     R0        3
    x[18]     OBJ       14
    x[18]     R1        3
    x[19]     OBJ       -13
    x[19]     R0        -7
    x[19]     R1        1
    x[20]     OBJ       -3
    x[20]     R0        1
    x[21]     OBJ       23
    x[22]     OBJ       40
    x[22]     R0        -8
    x[22]     R1        5
    x[23]     OBJ       34
    x[23]     R0        2
    x[23]     R1        -6
    x[24]     OBJ       -35
    x[24]     R1        1
    x[25]     OBJ       15
    x[25]     R0        8
    x[25]     R1        3
    x[26]     OBJ       2
    x[26]     R0        -2
    x[26]     R1        -4
    x[27]     OBJ       19
    x[27]     R0        -10
    x[27]     R1        -8
    x[28]     OBJ       16
    x[28]     R0        3
    x[28]     R1        -7
    x[29]     OBJ       39
    x[29]     R0        8
    x[30]     OBJ       -22
    x[30]     R0        -4
    x[30]     R1        -6
    x[31]     OBJ       -31
    x[31]     R0        10
    x[31]     R1        -7
    x[32]     OBJ       -33
    x[32]     R0        1
    x[32]     R1        -5
    x[33]     OBJ       -45
    x[33]     R0        10
    x[33]     R1        8
    x[34]     OBJ       29
    x[34]     R0        9
    x[34]     R1        -4
    x[35]     OBJ       -40
    x[35]     R0        2
    x[35]     R1        3
    x[36]     OBJ       -21
    x[36]     R0        -6
    x[36]     R1        4
    x[37]     OBJ       -33
    x[37]     R0        3
    x[37]     R1        4
    x[38]     OBJ       31
    x[38]     R0        -2
    x[38]     R1        -1
    x[39]     OBJ       -4
    x[39]     R0        -7
    x[39]     R1        -4
    x[40]     OBJ       -43
    x[40]     R0        -5
    x[40]     R1        6
    x[41]     OBJ       -33
    x[41]     R0        -8
    x[41]     R1        10
    x[42]     OBJ       36
    x[42]     R0        -10
    x[42]     R1        -7
    x[43]     OBJ       11
    x[43]     R0        -3
    x[43]     R1        -3
    x[44]     OBJ       14
    x[44]     R0        -2
    x[44]     R1        -4
    x[45]     OBJ       -43
    x[45]     R0        -9
    x[45]     R1        -10
    x[46]     OBJ       -21
    x[46]     R0        -6
    x[46]     R1        8
    x[47]     OBJ       5
    x[47]     R0        -4
    x[47]     R1        -1
    x[48]     OBJ       -22
    x[48]     R0        -9
    x[48]     R1        -1
    x[49]     OBJ       49
    x[49]     R0        -1
    x[49]     R1        -7
    y[0]      OBJ       -7
    y[0]      R0        -7
    y[0]      R1        8
    y[0]      R2        1
    y[0]      R3        1
    y[0]      R4        1
    y[0]      R5        1
    y[0]      R6        1
    y[0]      R7        1
    y[0]      R8        1
    y[0]      R9        1
    y[0]      R10       1
    y[0]      R11       1
    y[0]      R12       1
    y[0]      R13       1
    y[0]      R14       1
    y[1]      OBJ       48
    y[1]      R0        4
    y[1]      R1        5
    y[1]      R2        1
    y[1]      R15       1
    y[1]      R16       1
    y[1]      R17       1
    y[1]      R18       1
    y[1]      R19       1
    y[1]      R20       1
    y[1]      R21       1
    y[1]      R22       1
    y[1]      R23       1
    y[1]      R24       1
    y[2]      OBJ       5
    y[2]      R0        10
    y[2]      R1        -9
    y[2]      R25       1
    y[2]      R26       1
    y[2]      R27       1
    y[2]      R28       1
    y[2]      R29       1
    y[2]      R30       1
    y[2]      R31       1
    y[2]      R32       1
    y[2]      R33       1
    y[2]      R34       1
    y[2]      R35       1
    y[2]      R36       1
    y[2]      R37       1
    y[2]      R38       1
    y[2]      R39       1
    y[2]      R40       1
    y[3]      OBJ       -45
    y[3]      R0        -7
    y[3]      R1        -3
    y[3]      R3        1
    y[3]      R25       1
    y[3]      R41       1
    y[3]      R42       1
    y[3]      R43       1
    y[3]      R44       1
    y[3]      R45       1
    y[3]      R46       1
    y[3]      R47       1
    y[3]      R48       1
    y[3]      R49       1
    y[3]      R50       1
    y[4]      R0        9
    y[4]      R1        -2
    y[4]      R41       1
    y[4]      R51       1
    y[4]      R52       1
    y[4]      R53       1
    y[4]      R54       1
    y[4]      R55       1
    y[4]      R56       1
    y[4]      R57       1
    y[4]      R58       1
    y[4]      R59       1
    y[4]      R60       1
    y[4]      R61       1
    y[4]      R62       1
    y[4]      R63       1
    y[5]      OBJ       42
    y[5]      R0        3
    y[5]      R1        -3
    y[5]      R42       1
    y[5]      R51       1
    y[5]      R64       1
    y[5]      R65       1
    y[5]      R66       1
    y[5]      R67       1
    y[5]      R68       1
    y[5]      R69       1
    y[5]      R70       1
    y[5]      R71       1
    y[6]      OBJ       13
    y[6]      R0        9
    y[6]      R1        9
    y[6]      R4        1
    y[6]      R72       1
    y[6]      R73       1
    y[6]      R74       1
    y[6]      R75       1
    y[6]      R76       1
    y[7]      OBJ       2
    y[7]      R0        -6
    y[7]      R1        -9
    y[7]      R15       1
    y[7]      R43       1
    y[7]      R52       1
    y[7]      R77       1
    y[7]      R78       1
    y[7]      R79       1
    y[7]      R80       1
    y[7]      R81       1
    y[7]      R82       1
    y[7]      R83       1
    y[7]      R84       1
    y[7]      R85       1
    y[7]      R86       1
    y[7]      R87       1
    y[7]      R88       1
    y[7]      R89       1
    y[7]      R90       1
    y[8]      OBJ       -16
    y[8]      R0        5
    y[8]      R1        -3
    y[8]      R91       1
    y[8]      R92       1
    y[8]      R93       1
    y[8]      R94       1
    y[8]      R95       1
    y[8]      R96       1
    y[8]      R97       1
    y[8]      R98       1
    y[8]      R99       1
    y[8]      R100      1
    y[8]      R101      1
    y[8]      R102      1
    y[8]      R103      1
    y[9]      OBJ       48
    y[9]      R0        1
    y[9]      R1        -7
    y[9]      R91       1
    y[9]      R104      1
    y[9]      R105      1
    y[9]      R106      1
    y[9]      R107      1
    y[9]      R108      1
    y[9]      R109      1
    y[9]      R110      1
    y[9]      R111      1
    y[9]      R112      1
    y[9]      R113      1
    y[9]      R114      1
    y[9]      R115      1
    y[9]      R116      1
    y[9]      R117      1
    y[10]     OBJ       33
    y[10]     R0        -6
    y[10]     R1        -3
    y[10]     R26       1
    y[10]     R104      1
    y[10]     R118      1
    y[10]     R119      1
    y[10]     R120      1
    y[10]     R121      1
    y[10]     R122      1
    y[10]     R123      1
    y[10]     R124      1
    y[10]     R125      1
    y[11]     OBJ       27
    y[11]     R0        2
    y[11]     R1        -1
    y[11]     R27       1
    y[11]     R72       1
    y[11]     R77       1
    y[11]     R126      1
    y[11]     R127      1
    y[11]     R128      1
    y[11]     R129      1
    y[11]     R130      1
    y[11]     R131      1
    y[11]     R132      1
    y[11]     R133      1
    y[11]     R134      1
    y[12]     OBJ       -13
    y[12]     R0        10
    y[12]     R1        9
    y[12]     R5        1
    y[12]     R92       1
    y[12]     R126      1
    y[12]     R135      1
    y[12]     R136      1
    y[12]     R137      1
    y[12]     R138      1
    y[12]     R139      1
    y[12]     R140      1
    y[12]     R141      1
    y[12]     R142      1
    y[12]     R143      1
    y[12]     R144      1
    y[12]     R145      1
    y[13]     OBJ       39
    y[13]     R0        -4
    y[13]     R1        -2
    y[13]     R53       1
    y[13]     R93       1
    y[13]     R105      1
    y[13]     R146      1
    y[13]     R147      1
    y[13]     R148      1
    y[13]     R149      1
    y[13]     R150      1
    y[13]     R151      1
    y[13]     R152      1
    y[13]     R153      1
    y[14]     OBJ       4
    y[14]     R0        9
    y[14]     R1        -3
    y[14]     R16       1
    y[14]     R64       1
    y[14]     R78       1
    y[14]     R94       1
    y[14]     R154      1
    y[14]     R155      1
    y[14]     R156      1
    y[14]     R157      1
    y[14]     R158      1
    y[14]     R159      1
    y[15]     OBJ       -46
    y[15]     R0        6
    y[15]     R1        -6
    y[15]     R17       1
    y[15]     R54       1
    y[15]     R106      1
    y[15]     R160      1
    y[15]     R161      1
    y[15]     R162      1
    y[15]     R163      1
    y[15]     R164      1
    y[15]     R165      1
    y[15]     R166      1
    y[15]     R167      1
    y[16]     OBJ       -7
    y[16]     R0        5
    y[16]     R1        3
    y[16]     R28       1
    y[16]     R79       1
    y[16]     R168      1
    y[16]     R169      1
    y[16]     R170      1
    y[16]     R171      1
    y[16]     R172      1
    y[16]     R173      1
    y[16]     R174      1
    y[16]     R175      1
    y[16]     R176      1
    y[16]     R177      1
    y[17]     OBJ       -39
    y[17]     R0        -6
    y[17]     R1        -1
    y[17]     R6        1
    y[17]     R29       1
    y[17]     R95       1
    y[17]     R127      1
    y[17]     R178      1
    y[17]     R179      1
    y[17]     R180      1
    y[17]     R181      1
    y[17]     R182      1
    y[17]     R183      1
    y[17]     R184      1
    y[17]     R185      1
    y[17]     R186      1
    y[18]     OBJ       -21
    y[18]     R1        5
    y[18]     R55       1
    y[18]     R135      1
    y[18]     R146      1
    y[18]     R154      1
    y[18]     R160      1
    y[18]     R187      1
    y[18]     R188      1
    y[19]     OBJ       26
    y[19]     R0        -4
    y[19]     R1        4
    y[19]     R107      1
    y[19]     R128      1
    y[19]     R161      1
    y[19]     R178      1
    y[19]     R189      1
    y[19]     R190      1
    y[19]     R191      1
    y[19]     R192      1
    y[19]     R193      1
    y[19]     R194      1
    y[20]     OBJ       39
    y[20]     R0        -6
    y[20]     R1        -10
    y[20]     R18       1
    y[20]     R44       1
    y[20]     R65       1
    y[20]     R108      1
    y[20]     R147      1
    y[20]     R195      1
    y[20]     R196      1
    y[20]     R197      1
    y[20]     R198      1
    y[20]     R199      1
    y[20]     R200      1
    y[20]     R201      1
    y[21]     OBJ       -18
    y[21]     R0        -7
    y[21]     R1        9
    y[21]     R30       1
    y[21]     R73       1
    y[21]     R168      1
    y[21]     R202      1
    y[21]     R203      1
    y[21]     R204      1
    y[21]     R205      1
    y[21]     R206      1
    y[21]     R207      1
    y[21]     R208      1
    y[22]     R0        -10
    y[22]     R1        9
    y[22]     R31       1
    y[22]     R189      1
    y[22]     R209      1
    y[22]     R210      1
    y[22]     R211      1
    y[23]     OBJ       1
    y[23]     R0        -4
    y[23]     R1        -9
    y[23]     R19       1
    y[23]     R32       1
    y[23]     R109      1
    y[23]     R202      1
    y[23]     R212      1
    y[23]     R213      1
    y[23]     R214      1
    y[23]     R215      1
    y[23]     R216      1
    y[23]     R217      1
    y[24]     OBJ       -8
    y[24]     R0        8
    y[24]     R1        -2
    y[24]     R80       1
    y[24]     R118      1
    y[24]     R162      1
    y[24]     R169      1
    y[24]     R212      1
    y[24]     R218      1
    y[24]     R219      1
    y[24]     R220      1
    y[24]     R221      1
    y[24]     R222      1
    y[24]     R223      1
    y[24]     R224      1
    y[25]     OBJ       -27
    y[25]     R0        -1
    y[25]     R1        4
    y[25]     R33       1
    y[25]     R56       1
    y[25]     R66       1
    y[25]     R136      1
    y[25]     R225      1
    y[25]     R226      1
    y[25]     R227      1
    y[25]     R228      1
    y[26]     OBJ       39
    y[26]     R0        8
    y[26]     R45       1
    y[26]     R57       1
    y[26]     R119      1
    y[26]     R137      1
    y[26]     R148      1
    y[26]     R163      1
    y[26]     R203      1
    y[26]     R229      1
    y[26]     R230      1
    y[26]     R231      1
    y[26]     R232      1
    y[26]     R233      1
    y[26]     R234      1
    y[26]     R235      1
    y[27]     OBJ       -7
    y[27]     R0        6
    y[27]     R1        5
    y[27]     R46       1
    y[27]     R58       1
    y[27]     R96       1
    y[27]     R110      1
    y[27]     R155      1
    y[27]     R170      1
    y[27]     R218      1
    y[27]     R236      1
    y[27]     R237      1
    y[27]     R238      1
    y[27]     R239      1
    y[27]     R240      1
    y[27]     R241      1
    y[28]     OBJ       38
    y[28]     R1        8
    y[28]     R129      1
    y[28]     R156      1
    y[28]     R242      1
    y[28]     R243      1
    y[28]     R244      1
    y[29]     OBJ       45
    y[29]     R0        7
    y[29]     R1        -7
    y[29]     R111      1
    y[29]     R130      1
    y[29]     R138      1
    y[29]     R171      1
    y[29]     R179      1
    y[29]     R187      1
    y[29]     R195      1
    y[29]     R219      1
    y[29]     R225      1
    y[29]     R229      1
    y[29]     R245      1
    y[29]     R246      1
    y[29]     R247      1
    y[29]     R248      1
    y[29]     R249      1
    y[29]     R250      1
    y[29]     R251      1
    y[29]     R252      1
    y[30]     OBJ       -22
    y[30]     R0        8
    y[30]     R1        -7
    y[30]     R67       1
    y[30]     R81       1
    y[30]     R190      1
    y[30]     R236      1
    y[30]     R245      1
    y[30]     R253      1
    y[30]     R254      1
    y[30]     R255      1
    y[30]     R256      1
    y[30]     R257      1
    y[30]     R258      1
    y[30]     R259      1
    y[30]     R260      1
    y[31]     OBJ       14
    y[31]     R0        10
    y[31]     R1        -3
    y[31]     R34       1
    y[31]     R68       1
    y[31]     R112      1
    y[31]     R149      1
    y[31]     R172      1
    y[31]     R196      1
    y[31]     R253      1
    y[31]     R261      1
    y[31]     R262      1
    y[31]     R263      1
    y[31]     R264      1
    y[31]     R265      1
    y[32]     OBJ       36
    y[32]     R0        -10
    y[32]     R35       1
    y[32]     R59       1
    y[32]     R113      1
    y[32]     R120      1
    y[32]     R139      1
    y[32]     R230      1
    y[32]     R246      1
    y[32]     R266      1
    y[32]     R267      1
    y[32]     R268      1
    y[32]     R269      1
    y[32]     R270      1
    y[32]     R271      1
    y[33]     OBJ       8
    y[33]     R0        -4
    y[33]     R7        1
    y[33]     R20       1
    y[33]     R47       1
    y[33]     R82       1
    y[33]     R97       1
    y[33]     R140      1
    y[33]     R173      1
    y[33]     R180      1
    y[33]     R204      1
    y[33]     R220      1
    y[33]     R242      1
    y[33]     R254      1
    y[33]     R272      1
    y[33]     R273      1
    y[34]     OBJ       38
    y[34]     R0        3
    y[34]     R1        -2
    y[34]     R36       1
    y[34]     R83       1
    y[34]     R98       1
    y[34]     R114      1
    y[34]     R150      1
    y[34]     R226      1
    y[34]     R237      1
    y[34]     R255      1
    y[34]     R274      1
    y[34]     R275      1
    y[34]     R276      1
    y[34]     R277      1
    y[35]     OBJ       1
    y[35]     R0        -10
    y[35]     R1        2
    y[35]     R8        1
    y[35]     R37       1
    y[35]     R60       1
    y[35]     R74       1
    y[35]     R99       1
    y[35]     R141      1
    y[35]     R157      1
    y[35]     R174      1
    y[35]     R209      1
    y[35]     R213      1
    y[35]     R231      1
    y[35]     R261      1
    y[35]     R272      1
    y[35]     R274      1
    y[35]     R278      1
    y[36]     OBJ       -28
    y[36]     R0        -10
    y[36]     R1        8
    y[36]     R69       1
    y[36]     R75       1
    y[36]     R84       1
    y[36]     R115      1
    y[36]     R158      1
    y[36]     R164      1
    y[36]     R181      1
    y[36]     R191      1
    y[36]     R232      1
    y[36]     R247      1
    y[36]     R279      1
    y[37]     OBJ       -40
    y[37]     R0        8
    y[37]     R1        -3
    y[37]     R9        1
    y[37]     R21       1
    y[37]     R48       1
    y[37]     R85       1
    y[37]     R165      1
    y[37]     R188      1
    y[37]     R192      1
    y[37]     R197      1
    y[37]     R214      1
    y[37]     R221      1
    y[37]     R256      1
    y[37]     R280      1
    y[37]     R281      1
    y[37]     R282      1
    y[37]     R283      1
    y[38]     OBJ       -19
    y[38]     R0        10
    y[38]     R1        -2
    y[38]     R10       1
    y[38]     R22       1
    y[38]     R49       1
    y[38]     R116      1
    y[38]     R151      1
    y[38]     R193      1
    y[38]     R205      1
    y[38]     R210      1
    y[38]     R222      1
    y[38]     R257      1
    y[38]     R266      1
    y[38]     R275      1
    y[38]     R279      1
    y[38]     R284      1
    y[38]     R285      1
    y[38]     R286      1
    y[39]     OBJ       -41
    y[39]     R0        -9
    y[39]     R1        4
    y[39]     R11       1
    y[39]     R38       1
    y[39]     R131      1
    y[39]     R142      1
    y[39]     R152      1
    y[39]     R215      1
    y[39]     R262      1
    y[39]     R287      1
    y[39]     R288      1
    y[39]     R289      1
    y[40]     OBJ       -44
    y[40]     R0        -5
    y[40]     R1        -8
    y[40]     R100      1
    y[40]     R121      1
    y[40]     R206      1
    y[40]     R263      1
    y[40]     R267      1
    y[40]     R280      1
    y[40]     R290      1
    y[40]     R291      1
    y[40]     R292      1
    y[41]     OBJ       -20
    y[41]     R0        3
    y[41]     R1        -7
    y[41]     R61       1
    y[41]     R101      1
    y[41]     R132      1
    y[41]     R153      1
    y[41]     R166      1
    y[41]     R175      1
    y[41]     R182      1
    y[41]     R207      1
    y[41]     R216      1
    y[41]     R248      1
    y[41]     R258      1
    y[41]     R287      1
    y[41]     R293      1
    y[41]     R294      1
    y[42]     OBJ       17
    y[42]     R0        -2
    y[42]     R1        6
    y[42]     R50       1
    y[42]     R143      1
    y[42]     R198      1
    y[42]     R243      1
    y[42]     R264      1
    y[42]     R268      1
    y[42]     R281      1
    y[42]     R284      1
    y[42]     R290      1
    y[42]     R295      1
    y[42]     R296      1
    y[42]     R297      1
    y[43]     OBJ       -32
    y[43]     R0        8
    y[43]     R39       1
    y[43]     R70       1
    y[43]     R86       1
    y[43]     R183      1
    y[43]     R208      1
    y[43]     R217      1
    y[43]     R227      1
    y[43]     R269      1
    y[43]     R278      1
    y[43]     R293      1
    y[43]     R298      1
    y[43]     R299      1
    y[43]     R300      1
    y[44]     OBJ       -38
    y[44]     R0        8
    y[44]     R1        -6
    y[44]     R12       1
    y[44]     R23       1
    y[44]     R62       1
    y[44]     R122      1
    y[44]     R133      1
    y[44]     R184      1
    y[44]     R233      1
    y[44]     R270      1
    y[44]     R288      1
    y[44]     R291      1
    y[44]     R301      1
    y[44]     R302      1
    y[44]     R303      1
    y[45]     OBJ       23
    y[45]     R0        -4
    y[45]     R1        6
    y[45]     R13       1
    y[45]     R87       1
    y[45]     R102      1
    y[45]     R123      1
    y[45]     R144      1
    y[45]     R167      1
    y[45]     R185      1
    y[45]     R199      1
    y[45]     R234      1
    y[45]     R238      1
    y[45]     R244      1
    y[45]     R249      1
    y[45]     R259      1
    y[45]     R265      1
    y[45]     R301      1
    y[45]     R304      1
    y[46]     OBJ       24
    y[46]     R0        7
    y[46]     R1        5
    y[46]     R76       1
    y[46]     R88       1
    y[46]     R124      1
    y[46]     R145      1
    y[46]     R159      1
    y[46]     R176      1
    y[46]     R200      1
    y[46]     R223      1
    y[46]     R235      1
    y[46]     R239      1
    y[46]     R250      1
    y[46]     R260      1
    y[46]     R273      1
    y[46]     R285      1
    y[46]     R292      1
    y[46]     R294      1
    y[46]     R295      1
    y[46]     R302      1
    y[46]     R305      1
    y[47]     OBJ       41
    y[47]     R0        8
    y[47]     R40       1
    y[47]     R103      1
    y[47]     R125      1
    y[47]     R177      1
    y[47]     R201      1
    y[47]     R211      1
    y[47]     R224      1
    y[47]     R240      1
    y[47]     R271      1
    y[47]     R276      1
    y[47]     R289      1
    y[47]     R296      1
    y[47]     R298      1
    y[47]     R305      1
    y[48]     OBJ       15
    y[48]     R0        -4
    y[48]     R1        10
    y[48]     R63       1
    y[48]     R71       1
    y[48]     R89       1
    y[48]     R117      1
    y[48]     R186      1
    y[48]     R241      1
    y[48]     R251      1
    y[48]     R282      1
    y[48]     R299      1
    y[48]     R304      1
    y[49]     OBJ       35
    y[49]     R0        -6
    y[49]     R1        -8
    y[49]     R14       1
    y[49]     R24       1
    y[49]     R90       1
    y[49]     R134      1
    y[49]     R194      1
    y[49]     R228      1
    y[49]     R252      1
    y[49]     R277      1
    y[49]     R283      1
    y[49]     R286      1
    y[49]     R297      1
    y[49]     R300      1
    y[49]     R303      1
    MARKER    'MARKER'                 'INTEND'
RHS
    RHS1      R2        1
    RHS1      R3        1
    RHS1      R4        1
    RHS1      R5        1
    RHS1      R6        1
    RHS1      R7        1
    RHS1      R8        1
    RHS1      R9        1
    RHS1      R10       1
    RHS1      R11       1
    RHS1      R12       1
    RHS1      R13       1
    RHS1      R14       1
    RHS1      R15       1
    RHS1      R16       1
    RHS1      R17       1
    RHS1      R18       1
    RHS1      R19       1
    RHS1      R20       1
    RHS1      R21       1
    RHS1      R22       1
    RHS1      R23       1
    RHS1      R24       1
    RHS1      R25       1
    RHS1      R26       1
    RHS1      R27       1
    RHS1      R28       1
    RHS1      R29       1
    RHS1      R30       1
    RHS1      R31       1
    RHS1      R32       1
    RHS1      R33       1
    RHS1      R34       1
    RHS1      R35       1
    RHS1      R36       1
    RHS1      R37       1
    RHS1      R38       1
    RHS1      R39       1
    RHS1      R40       1
    RHS1      R41       1
    RHS1      R42       1
    RHS1      R43       1
    RHS1      R44       1
    RHS1      R45       1
    RHS1      R46       1
    RHS1      R47       1
    RHS1      R48       1
    RHS1      R49       1
    RHS1      R50       1
    RHS1      R51       1
    RHS1      R52       1
    RHS1      R53       1
    RHS1      R54       1
    RHS1      R55       1
    RHS1      R56       1
    RHS1      R57       1
    RHS1      R58       1
    RHS1      R59       1
    RHS1      R60       1
    RHS1      R61       1
    RHS1      R62       1
    RHS1      R63       1
    RHS1      R64       1
    RHS1      R65       1
    RHS1      R66       1
    RHS1      R67       1
    RHS1      R68       1
    RHS1      R69       1
    RHS1      R70       1
    RHS1      R71       1
    RHS1      R72       1
    RHS1      R73       1
    RHS1      R74       1
    RHS1      R75       1
    RHS1      R76       1
    RHS1      R77       1
    RHS1      R78       1
    RHS1      R79       1
    RHS1      R80       1
    RHS1      R81       1
    RHS1      R82       1
    RHS1      R83       1
    RHS1      R84       1
    RHS1      R85       1
    RHS1      R86       1
    RHS1      R87       1
    RHS1      R88       1
    RHS1      R89       1
    RHS1      R90       1
    RHS1      R91       1
    RHS1      R92       1
    RHS1      R93       1
    RHS1      R94       1
    RHS1      R95       1
    RHS1      R96       1
    RHS1      R97       1
    RHS1      R98       1
    RHS1      R99       1
    RHS1      R100      1
    RHS1      R101      1
    RHS1      R102      1
    RHS1      R103      1
    RHS1      R104      1
    RHS1      R105      1
    RHS1      R106      1
    RHS1      R107      1
    RHS1      R108      1
    RHS1      R109      1
    RHS1      R110      1
    RHS1      R111      1
    RHS1      R112      1
    RHS1      R113      1
    RHS1      R114      1
    RHS1      R115      1
    RHS1      R116      1
    RHS1      R117      1
    RHS1      R118      1
    RHS1      R119      1
    RHS1      R120      1
    RHS1      R121      1
    RHS1      R122      1
    RHS1      R123      1
    RHS1      R124      1
    RHS1      R125      1
    RHS1      R126      1
    RHS1      R127      1
    RHS1      R128      1
    RHS1      R129      1
    RHS1      R130      1
    RHS1      R131      1
    RHS1      R132      1
    RHS1      R133      1
    RHS1      R134      1
    RHS1      R135      1
    RHS1      R136      1
    RHS1      R137      1
    RHS1      R138      1
    RHS1      R139      1
    RHS1      R140      1
    RHS1      R141      1
    RHS1      R142      1
    RHS1      R143      1
    RHS1      R144      1
    RHS1      R145      1
    RHS1      R146      1
    RHS1      R147      1
    RHS1      R148      1
    RHS1      R149      1
    RHS1      R150      1
    RHS1      R151      1
    RHS1      R152      1
    RHS1      R153      1
    RHS1      R154      1
    RHS1      R155      1
    RHS1      R156      1
    RHS1      R157      1
    RHS1      R158      1
    RHS1      R159      1
    RHS1      R160      1
    RHS1      R161      1
    RHS1      R162      1
    RHS1      R163      1
    RHS1      R164      1
    RHS1      R165      1
    RHS1      R166      1
    RHS1      R167      1
    RHS1      R168      1
    RHS1      R169      1
    RHS1      R170      1
    RHS1      R171      1
    RHS1      R172      1
    RHS1      R173      1
    RHS1      R174      1
    RHS1      R175      1
    RHS1      R176      1
    RHS1      R177      1
    RHS1      R178      1
    RHS1      R179      1
    RHS1      R180      1
    RHS1      R181      1
    RHS1      R182      1
    RHS1      R183      1
    RHS1      R184      1
    RHS1      R185      1
    RHS1      R186      1
    RHS1      R187      1
    RHS1      R188      1
    RHS1      R189      1
    RHS1      R190      1
    RHS1      R191      1
    RHS1      R192      1
    RHS1      R193      1
    RHS1      R194      1
    RHS1      R195      1
    RHS1      R196      1
    RHS1      R197      1
    RHS1      R198      1
    RHS1      R199      1
    RHS1      R200      1
    RHS1      R201      1
    RHS1      R202      1
    RHS1      R203      1
    RHS1      R204      1
    RHS1      R205      1
    RHS1      R206      1
    RHS1      R207      1
    RHS1      R208      1
    RHS1      R209      1
    RHS1      R210      1
    RHS1      R211      1
    RHS1      R212      1
    RHS1      R213      1
    RHS1      R214      1
    RHS1      R215      1
    RHS1      R216      1
    RHS1      R217      1
    RHS1      R218      1
    RHS1      R219      1
    RHS1      R220      1
    RHS1      R221      1
    RHS1      R222      1
    RHS1      R223      1
    RHS1      R224      1
    RHS1      R225      1
    RHS1      R226      1
    RHS1      R227      1
    RHS1      R228      1
    RHS1      R229      1
    RHS1      R230      1
    RHS1      R231      1
    RHS1      R232      1
    RHS1      R233      1
    RHS1      R234      1
    RHS1      R235      1
    RHS1      R236      1
    RHS1      R237      1
    RHS1      R238      1
    RHS1      R239      1
    RHS1      R240      1
    RHS1      R241      1
    RHS1      R242      1
    RHS1      R243      1
    RHS1      R244      1
    RHS1      R245      1
    RHS1      R246      1
    RHS1      R247      1
    RHS1      R248      1
    RHS1      R249      1
    RHS1      R250      1
    RHS1      R251      1
    RHS1      R252      1
    RHS1      R253      1
    RHS1      R254      1
    RHS1      R255      1
    RHS1      R256      1
    RHS1      R257      1
    RHS1      R258      1
    RHS1      R259      1
    RHS1      R260      1
    RHS1      R261      1
    RHS1      R262      1
    RHS1      R263      1
    RHS1      R264      1
    RHS1      R265      1
    RHS1      R266      1
    RHS1      R267      1
    RHS1      R268      1
    RHS1      R269      1
    RHS1      R270      1
    RHS1      R271      1
    RHS1      R272      1
    RHS1      R273      1
    RHS1      R274      1
    RHS1      R275      1
    RHS1      R276      1
    RHS1      R277      1
    RHS1      R278      1
    RHS1      R279      1
    RHS1      R280      1
    RHS1      R281      1
    RHS1      R282      1
    RHS1      R283      1
    RHS1      R284      1
    RHS1      R285      1
    RHS1      R286      1
    RHS1      R287      1
    RHS1      R288      1
    RHS1      R289      1
    RHS1      R290      1
    RHS1      R291      1
    RHS1      R292      1
    RHS1      R293      1
    RHS1      R294      1
    RHS1      R295      1
    RHS1      R296      1
    RHS1      R297      1
    RHS1      R298      1
    RHS1      R299      1
    RHS1      R300      1
    RHS1      R301      1
    RHS1      R302      1
    RHS1      R303      1
    RHS1      R304      1
    RHS1      R305      1
BOUNDS
 BV BND1      x[0]    
 BV BND1      x[1]    
 BV BND1      x[2]    
 BV BND1      x[3]    
 BV BND1      x[4]    
 BV BND1      x[5]    
 BV BND1      x[6]    
 BV BND1      x[7]    
 BV BND1      x[8]    
 BV BND1      x[9]    
 BV BND1      x[10]   
 BV BND1      x[11]   
 BV BND1      x[12]   
 BV BND1      x[13]   
 BV BND1      x[14]   
 BV BND1      x[15]   
 BV BND1      x[16]   
 BV BND1      x[17]   
 BV BND1      x[18]   
 BV BND1      x[19]   
 BV BND1      x[20]   
 BV BND1      x[21]   
 BV BND1      x[22]   
 BV BND1      x[23]   
 BV BND1      x[24]   
 BV BND1      x[25]   
 BV BND1      x[26]   
 BV BND1      x[27]   
 BV BND1      x[28]   
 BV BND1      x[29]   
 BV BND1      x[30]   
 BV BND1      x[31]   
 BV BND1      x[32]   
 BV BND1      x[33]   
 BV BND1      x[34]   
 BV BND1      x[35]   
 BV BND1      x[36]   
 BV BND1      x[37]   
 BV BND1      x[38]   
 BV BND1      x[39]   
 BV BND1      x[40]   
 BV BND1      x[41]   
 BV BND1      x[42]   
 BV BND1      x[43]   
 BV BND1      x[44]   
 BV BND1      x[45]   
 BV BND1      x[46]   
 BV BND1      x[47]   
 BV BND1      x[48]   
 BV BND1      x[49]   
 BV BND1      y[0]    
 BV BND1      y[1]    
 BV BND1      y[2]    
 BV BND1      y[3]    
 BV BND1      y[4]    
 BV BND1      y[5]    
 BV BND1      y[6]    
 BV BND1      y[7]    
 BV BND1      y[8]    
 BV BND1      y[9]    
 BV BND1      y[10]   
 BV BND1      y[11]   
 BV BND1      y[12]   
 BV BND1      y[13]   
 BV BND1      y[14]   
 BV BND1      y[15]   
 BV BND1      y[16]   
 BV BND1      y[17]   
 BV BND1      y[18]   
 BV BND1      y[19]   
 BV BND1      y[20]   
 BV BND1      y[21]   
 BV BND1      y[22]   
 BV BND1      y[23]   
 BV BND1      y[24]   
 BV BND1      y[25]   
 BV BND1      y[26]   
 BV BND1      y[27]   
 BV BND1      y[28]   
 BV BND1      y[29]   
 BV BND1      y[30]   
 BV BND1      y[31]   
 BV BND1      y[32]   
 BV BND1      y[33]   
 BV BND1      y[34]   
 BV BND1      y[35]   
 BV BND1      y[36]   
 BV BND1      y[37]   
 BV BND1      y[38]   
 BV BND1      y[39]   
 BV BND1      y[40]   
 BV BND1      y[41]   
 BV BND1      y[42]   
 BV BND1      y[43]   
 BV BND1      y[44]   
 BV BND1      y[45]   
 BV BND1      y[46]   
 BV BND1      y[47]   
 BV BND1      y[48]   
 BV BND1      y[49]   
ENDATA
